unknown
(model
; cardinality of BoundSet is 1
(declare-sort BoundSet 0)
; rep: @uc_BoundSet_0
(declare-sort UnboundSet 0)
(define-fun IsFat ((BOUND_VARIABLE_356 BoundSet)) Bool false)
(define-fun IsLeaving ((BOUND_VARIABLE_356 BoundSet)) Bool false)
(define-fun IsOnLake ((BOUND_VARIABLE_356 BoundSet)) Bool false)
(define-fun IsOnDock ((BOUND_VARIABLE_356 BoundSet)) Bool false)
)
